% demand
num_movements = 29;
loading_factor = [1900, 1800, 1650, 1250, 1250, 1550, 1600, 800, 1650, 1750, 900, 1850, 950, 1850, 1550, 1500, 1700, 1800, 1200, 850, 850, 1150, 1850, 850, 1750, 950, 800, 900, 1100];
pickup_time = [0, 0, 0, 0, 0, 0, 0, 1, 1, 2, 5, 5, 5, 5, 6, 6, 6, 8, 8, 8, 8, 9, 9, 10, 10, 10, 10, 10, 10];
delivery_time = [4, 1, 4, 1, 1, 4, 4, 4, 4, 4, 8, 7, 7, 8, 8, 8, 11, 11, 10, 10, 10, 11, 10, 11, 11, 11, 11, 11, 11];

% transporter definition
total_capacity = 11000;
num_decks = 4;
capacity = [3000, 3000, 1000, 4000];

% ways out of decks
num_ways_out = 2;
paths_out = array3d(decks, ways_out, decks, [
% ways out of deck d1
2, 4, 0, 0, 3, 4, 0, 0, 

% ways out of deck d2
4, 0, 0, 0, 0, 0, 0, 0,	

% ways out of deck d3
4, 0, 0, 0, 0, 0, 0, 0,	

% ways out of deck d4
0, 0, 0, 0,	0, 0, 0, 0,	

]);

